1599
60 76 34 35 36 59 57 66 50 42 51 8 10 7 33 75 99 83 68 39 6 84 29 37 18 2 73 11 61 23 21 94 77 13 15 53 12 70 46 55 63 64 98 19 79 41 78 9 80 25 58 74 65 71 28 81 89 45 49 56 43 52 27 86 97 87 16 32 48 24 38 3 93 91 96 31 62 95 5 90 54 22 17 40 72 69 92 1 30 47 85 67 4 26 88 20 44 82 14 
